4 5
148 236 181 108 
0 61 51 79 69 98 88 16 6 55 40 89 34 86 36 96 15 97 64 83 77 2
1 95 85 72 62 56 46 33 23 66 58 55 42 21 55 84 80 54 99 76 50 2
2 37 27 72 62 14 4 49 39 49 31 9 70 18 69 90 80 37 53 46 67 1
3 20 10 28 18 45 35 53 43 83 1 13 52 81 21 99 14 37 73 49 99 3
4 23 13 94 84 64 54 35 25 84 4 50 59 9 6 63 49 92 93 59 59 1
